50, 10754
1, 453
210, 560
911, 925
470, 466
981, 508
398, 588
74, 185
630, 512
779, 630
270, 793
88, 95
333, 304
965, 91
759, 810
118, 694
247, 42
102, 983
60, 965
798, 654
178, 616
560, 158
448, 16
191, 529
732, 60
131, 191
644, 242
117, 31
421, 464
213, 441
270, 843
971, 520
804, 641
305, 500
885, 663
211, 458
395, 279
855, 998
642, 996
101, 841
990, 708
214, 316
259, 230
773, 290
329, 71
297, 767
74, 401
91, 847
583, 387
244, 959
602, 848
